db/data/8534817249822930725174301111312569.z3.out
sat
-------------------
378.771023047
